15882
0 0 1 0 1 1 0 1 1 1 1 1 0 1 1 1 1 0 1 0 1 1 1 0 1 1 1 1 0 0
21 10 21 25 20 22 13 18 21 4 26 13 18 7 16 14 13 8 21 5 21 27 8 7 11 22 20 8 5 2 4 13 11 9 4 21 8 27 11 5 4 13 18 18 4 22 20 8 5 9 22 13 8 7 13 21 18 5 25 26 22 13 8 25 9 2 24 11 9 4 8 22 18 21 4 10 7 8 5 7 11 13 10 10 4 26 27 26 7 11 4 13 8 10 4 26 13 24 7 5 4 2 10 10 4 10 20 8 7 5 22 20 9 5 7 22 27 8 7 5 27 20 9 5 7 21 27 8 15 26 10 13 8 25 7 22 20 8 15 25 8 13 18 18 14 22 20 8 15 25